139
10000
2029
1191
7164
3551
324
4529
537
4229
766
5448
4
1005
4061
5614
6338
3498
6641
3302
2477
3235
5564
305
162
3115
5376
883
6483
1104
4054
5463
2628
5319
4653
2551
416
5946
2007
2597
5198
3118
1180
59
4941
6021
6941
4054
659
5061
5982
364
3202
6938
3527
3003
1366
999
2836
4074
1146
601
1638
2576
6732
287
2040
2257
813
4572
4247
2091
643
575
6209
580
2338
178
3037
4138
184
433
7251
7369
6502
6347
4082
1893
7219
6599
109
1292
5887
3665
5671
7246
1375
4624
730
1584
5773
1832
4433
5939
160
1219
1816
2975
5771
1345
7372
703
2434
7029
5123
1325
2475
4458
4723
3551
1650
914
1827
2984
4227
4224
6885
3059
3385
6097
4018
2034
1569
2749
773
2971
749
3020
1215
1553
2789
